\Problem name: compact

Minimize
OBJROW: C
Subject To
ord(0,1):  - x(0,1) + x(0,2) >= 7
ord(0,2):  x(0,0) - x(0,2) >= 7
ord(1,1):  x(1,0) - x(1,1) >= 4
ord(1,2):  - x(1,0) + x(1,2) >= 3
ord(2,1):  - x(2,1) + x(2,2) >= 7
ord(2,2):  x(2,0) - x(2,2) >= 6
triangle2(0,1,0):  y(0,1,0) + y(1,0,0) = 1
triangle2(0,1,1):  y(0,1,1) + y(1,0,1) = 1
triangle2(0,1,2):  y(0,1,2) + y(1,0,2) = 1
triangle2(0,2,0):  y(0,2,0) + y(2,0,0) = 1
triangle2(0,2,1):  y(0,2,1) + y(2,0,1) = 1
triangle2(0,2,2):  y(0,2,2) + y(2,0,2) = 1
triangle2(1,2,0):  y(1,2,0) + y(2,1,0) = 1
triangle2(1,2,1):  y(1,2,1) + y(2,1,1) = 1
triangle2(1,2,2):  y(1,2,2) + y(2,1,2) = 1
MCLinV(0,1,0):  - x(0,0) + v(0,1,0)p - v(0,1,0)n + x(1,0) = -3
MCLinV(1,0,0):  x(0,0) + v(1,0,0)p - v(1,0,0)n - x(1,0) = -1
MCLin1(0,1,0):  u(0,1,0)p - u(0,1,0)n >= 0
MCLin2(0,1,0):  23 y(1,0,0) + u(0,1,0)p - u(0,1,0)n >= 0
MCLin3(0,1,0):  -36 y(1,0,0) - v(0,1,0)p + v(0,1,0)n + u(0,1,0)p - u(0,1,0)n >= -36
MCLin4(0,1,0):  -36 y(1,0,0) + u(0,1,0)p - u(0,1,0)n <= 0
MCLin5(0,1,0):  23 y(1,0,0) - v(0,1,0)p + v(0,1,0)n + u(0,1,0)p - u(0,1,0)n <= 23
MCLin6(1,0,0):  u(1,0,0)p - u(1,0,0)n >= 0
MCLin7(1,0,0):  40 y(0,1,0) + u(1,0,0)p - u(1,0,0)n >= 0
MCLin8(1,0,0):  -19 y(0,1,0) - v(1,0,0)p + v(1,0,0)n + u(1,0,0)p - u(1,0,0)n >= -19
MCLin9(1,0,0):  -19 y(0,1,0) + u(1,0,0)p - u(1,0,0)n <= 0
MCLin10(1,0,0):  40 y(0,1,0) - v(1,0,0)p + v(1,0,0)n + u(1,0,0)p - u(1,0,0)n <= 40
MCLinV(0,1,1):  - x(0,1) + v(0,1,1)p - v(0,1,1)n + x(1,1) = -4
MCLinV(1,0,1):  x(0,1) + v(1,0,1)p - v(1,0,1)n - x(1,1) = -7
MCLin1(0,1,1):  u(0,1,1)p - u(0,1,1)n >= 0
MCLin2(0,1,1):  34 y(1,0,1) + u(0,1,1)p - u(0,1,1)n >= 0
MCLin3(0,1,1):  -25 y(1,0,1) - v(0,1,1)p + v(0,1,1)n + u(0,1,1)p - u(0,1,1)n >= -25
MCLin4(0,1,1):  -25 y(1,0,1) + u(0,1,1)p - u(0,1,1)n <= 0
MCLin5(0,1,1):  34 y(1,0,1) - v(0,1,1)p + v(0,1,1)n + u(0,1,1)p - u(0,1,1)n <= 34
MCLin6(1,0,1):  u(1,0,1)p - u(1,0,1)n >= 0
MCLin7(1,0,1):  36 y(0,1,1) + u(1,0,1)p - u(1,0,1)n >= 0
MCLin8(1,0,1):  -23 y(0,1,1) - v(1,0,1)p + v(1,0,1)n + u(1,0,1)p - u(1,0,1)n >= -23
MCLin9(1,0,1):  -23 y(0,1,1) + u(1,0,1)p - u(1,0,1)n <= 0
MCLin10(1,0,1):  36 y(0,1,1) - v(1,0,1)p + v(1,0,1)n + u(1,0,1)p - u(1,0,1)n <= 36
MCLinV(0,1,2):  - x(0,2) + v(0,1,2)p - v(0,1,2)n + x(1,2) = -7
MCLinV(1,0,2):  x(0,2) + v(1,0,2)p - v(1,0,2)n - x(1,2) = -7
MCLin1(0,1,2):  u(0,1,2)p - u(0,1,2)n >= 0
MCLin2(0,1,2):  37 y(1,0,2) + u(0,1,2)p - u(0,1,2)n >= 0
MCLin3(0,1,2):  -22 y(1,0,2) - v(0,1,2)p + v(0,1,2)n + u(0,1,2)p - u(0,1,2)n >= -22
MCLin4(0,1,2):  -22 y(1,0,2) + u(0,1,2)p - u(0,1,2)n <= 0
MCLin5(0,1,2):  37 y(1,0,2) - v(0,1,2)p + v(0,1,2)n + u(0,1,2)p - u(0,1,2)n <= 37
MCLin6(1,0,2):  u(1,0,2)p - u(1,0,2)n >= 0
MCLin7(1,0,2):  36 y(0,1,2) + u(1,0,2)p - u(1,0,2)n >= 0
MCLin8(1,0,2):  -23 y(0,1,2) - v(1,0,2)p + v(1,0,2)n + u(1,0,2)p - u(1,0,2)n >= -23
MCLin9(1,0,2):  -23 y(0,1,2) + u(1,0,2)p - u(1,0,2)n <= 0
MCLin10(1,0,2):  36 y(0,1,2) - v(1,0,2)p + v(1,0,2)n + u(1,0,2)p - u(1,0,2)n <= 36
MCLinV(0,2,0):  - x(0,0) + v(0,2,0)p - v(0,2,0)n + x(2,0) = -2
MCLinV(2,0,0):  x(0,0) + v(2,0,0)p - v(2,0,0)n - x(2,0) = -1
MCLin1(0,2,0):  u(0,2,0)p - u(0,2,0)n >= 0
MCLin2(0,2,0):  30 y(2,0,0) + u(0,2,0)p - u(0,2,0)n >= 0
MCLin3(0,2,0):  -28 y(2,0,0) - v(0,2,0)p + v(0,2,0)n + u(0,2,0)p - u(0,2,0)n >= -28
MCLin4(0,2,0):  -28 y(2,0,0) + u(0,2,0)p - u(0,2,0)n <= 0
MCLin5(0,2,0):  30 y(2,0,0) - v(0,2,0)p + v(0,2,0)n + u(0,2,0)p - u(0,2,0)n <= 30
MCLin6(2,0,0):  u(2,0,0)p - u(2,0,0)n >= 0
MCLin7(2,0,0):  31 y(0,2,0) + u(2,0,0)p - u(2,0,0)n >= 0
MCLin8(2,0,0):  -27 y(0,2,0) - v(2,0,0)p + v(2,0,0)n + u(2,0,0)p - u(2,0,0)n >= -27
MCLin9(2,0,0):  -27 y(0,2,0) + u(2,0,0)p - u(2,0,0)n <= 0
MCLin10(2,0,0):  31 y(0,2,0) - v(2,0,0)p + v(2,0,0)n + u(2,0,0)p - u(2,0,0)n <= 31
MCLinV(0,2,1):  - x(0,1) + v(0,2,1)p - v(0,2,1)n + x(2,1) = -7
MCLinV(2,0,1):  x(0,1) + v(2,0,1)p - v(2,0,1)n - x(2,1) = -7
MCLin1(0,2,1):  u(0,2,1)p - u(0,2,1)n >= 0
MCLin2(0,2,1):  36 y(2,0,1) + u(0,2,1)p - u(0,2,1)n >= 0
MCLin3(0,2,1):  -22 y(2,0,1) - v(0,2,1)p + v(0,2,1)n + u(0,2,1)p - u(0,2,1)n >= -22
MCLin4(0,2,1):  -22 y(2,0,1) + u(0,2,1)p - u(0,2,1)n <= 0
MCLin5(0,2,1):  36 y(2,0,1) - v(0,2,1)p + v(0,2,1)n + u(0,2,1)p - u(0,2,1)n <= 36
MCLin6(2,0,1):  u(2,0,1)p - u(2,0,1)n >= 0
MCLin7(2,0,1):  36 y(0,2,1) + u(2,0,1)p - u(2,0,1)n >= 0
MCLin8(2,0,1):  -22 y(0,2,1) - v(2,0,1)p + v(2,0,1)n + u(2,0,1)p - u(2,0,1)n >= -22
MCLin9(2,0,1):  -22 y(0,2,1) + u(2,0,1)p - u(2,0,1)n <= 0
MCLin10(2,0,1):  36 y(0,2,1) - v(2,0,1)p + v(2,0,1)n + u(2,0,1)p - u(2,0,1)n <= 36
MCLinV(0,2,2):  - x(0,2) + v(0,2,2)p - v(0,2,2)n + x(2,2) = -6
MCLinV(2,0,2):  x(0,2) + v(2,0,2)p - v(2,0,2)n - x(2,2) = -7
MCLin1(0,2,2):  u(0,2,2)p - u(0,2,2)n >= 0
MCLin2(0,2,2):  35 y(2,0,2) + u(0,2,2)p - u(0,2,2)n >= 0
MCLin3(0,2,2):  -23 y(2,0,2) - v(0,2,2)p + v(0,2,2)n + u(0,2,2)p - u(0,2,2)n >= -23
MCLin4(0,2,2):  -23 y(2,0,2) + u(0,2,2)p - u(0,2,2)n <= 0
MCLin5(0,2,2):  35 y(2,0,2) - v(0,2,2)p + v(0,2,2)n + u(0,2,2)p - u(0,2,2)n <= 35
MCLin6(2,0,2):  u(2,0,2)p - u(2,0,2)n >= 0
MCLin7(2,0,2):  36 y(0,2,2) + u(2,0,2)p - u(2,0,2)n >= 0
MCLin8(2,0,2):  -22 y(0,2,2) - v(2,0,2)p + v(2,0,2)n + u(2,0,2)p - u(2,0,2)n >= -22
MCLin9(2,0,2):  -22 y(0,2,2) + u(2,0,2)p - u(2,0,2)n <= 0
MCLin10(2,0,2):  36 y(0,2,2) - v(2,0,2)p + v(2,0,2)n + u(2,0,2)p - u(2,0,2)n <= 36
MCLinV(1,2,0):  - x(1,0) + v(1,2,0)p - v(1,2,0)n + x(2,0) = -2
MCLinV(2,1,0):  x(1,0) + v(2,1,0)p - v(2,1,0)n - x(2,0) = -3
MCLin1(1,2,0):  u(1,2,0)p - u(1,2,0)n >= 0
MCLin2(1,2,0):  40 y(2,1,0) + u(1,2,0)p - u(1,2,0)n >= 0
MCLin3(1,2,0):  -19 y(2,1,0) - v(1,2,0)p + v(1,2,0)n + u(1,2,0)p - u(1,2,0)n >= -19
MCLin4(1,2,0):  -19 y(2,1,0) + u(1,2,0)p - u(1,2,0)n <= 0
MCLin5(1,2,0):  40 y(2,1,0) - v(1,2,0)p + v(1,2,0)n + u(1,2,0)p - u(1,2,0)n <= 40
MCLin6(2,1,0):  u(2,1,0)p - u(2,1,0)n >= 0
MCLin7(2,1,0):  24 y(1,2,0) + u(2,1,0)p - u(2,1,0)n >= 0
MCLin8(2,1,0):  -35 y(1,2,0) - v(2,1,0)p + v(2,1,0)n + u(2,1,0)p - u(2,1,0)n >= -35
MCLin9(2,1,0):  -35 y(1,2,0) + u(2,1,0)p - u(2,1,0)n <= 0
MCLin10(2,1,0):  24 y(1,2,0) - v(2,1,0)p + v(2,1,0)n + u(2,1,0)p - u(2,1,0)n <= 24
MCLinV(1,2,1):  - x(1,1) + v(1,2,1)p - v(1,2,1)n + x(2,1) = -7
MCLinV(2,1,1):  x(1,1) + v(2,1,1)p - v(2,1,1)n - x(2,1) = -4
MCLin1(1,2,1):  u(1,2,1)p - u(1,2,1)n >= 0
MCLin2(1,2,1):  36 y(2,1,1) + u(1,2,1)p - u(1,2,1)n >= 0
MCLin3(1,2,1):  -23 y(2,1,1) - v(1,2,1)p + v(1,2,1)n + u(1,2,1)p - u(1,2,1)n >= -23
MCLin4(1,2,1):  -23 y(2,1,1) + u(1,2,1)p - u(1,2,1)n <= 0
MCLin5(1,2,1):  36 y(2,1,1) - v(1,2,1)p + v(1,2,1)n + u(1,2,1)p - u(1,2,1)n <= 36
MCLin6(2,1,1):  u(2,1,1)p - u(2,1,1)n >= 0
MCLin7(2,1,1):  34 y(1,2,1) + u(2,1,1)p - u(2,1,1)n >= 0
MCLin8(2,1,1):  -25 y(1,2,1) - v(2,1,1)p + v(2,1,1)n + u(2,1,1)p - u(2,1,1)n >= -25
MCLin9(2,1,1):  -25 y(1,2,1) + u(2,1,1)p - u(2,1,1)n <= 0
MCLin10(2,1,1):  34 y(1,2,1) - v(2,1,1)p + v(2,1,1)n + u(2,1,1)p - u(2,1,1)n <= 34
MCLinV(1,2,2):  - x(1,2) + v(1,2,2)p - v(1,2,2)n + x(2,2) = -6
MCLinV(2,1,2):  x(1,2) + v(2,1,2)p - v(2,1,2)n - x(2,2) = -7
MCLin1(1,2,2):  u(1,2,2)p - u(1,2,2)n >= 0
MCLin2(1,2,2):  35 y(2,1,2) + u(1,2,2)p - u(1,2,2)n >= 0
MCLin3(1,2,2):  -24 y(2,1,2) - v(1,2,2)p + v(1,2,2)n + u(1,2,2)p - u(1,2,2)n >= -24
MCLin4(1,2,2):  -24 y(2,1,2) + u(1,2,2)p - u(1,2,2)n <= 0
MCLin5(1,2,2):  35 y(2,1,2) - v(1,2,2)p + v(1,2,2)n + u(1,2,2)p - u(1,2,2)n <= 35
MCLin6(2,1,2):  u(2,1,2)p - u(2,1,2)n >= 0
MCLin7(2,1,2):  37 y(1,2,2) + u(2,1,2)p - u(2,1,2)n >= 0
MCLin8(2,1,2):  -22 y(1,2,2) - v(2,1,2)p + v(2,1,2)n + u(2,1,2)p - u(2,1,2)n >= -22
MCLin9(2,1,2):  -22 y(1,2,2) + u(2,1,2)p - u(2,1,2)n <= 0
MCLin10(2,1,2):  37 y(1,2,2) - v(2,1,2)p + v(2,1,2)n + u(2,1,2)p - u(2,1,2)n <= 37
makespan(0):  C - x(0,0) >= 1
makespan(1):  C - x(1,2) >= 7
makespan(2):  C - x(2,0) >= 2
cut_clique_1(0,0):  0.03291 x(0,0) + 0.04018 x(2,0) >= 1
cut_clique_1(1,0):  0.03324 x(0,0) + 0.04018 x(2,0) >= 1
cut_clique_1(2,0):  0.03490 x(0,0) + 0.03898 x(2,0) >= 1
cut_clique_1(3,0):  0.03693 x(0,0) + 0.03459 x(2,0) >= 1
cut_clique_1(4,0):  0.03693 x(0,0) + 0.03701 x(2,0) >= 1
cut_clique_1(5,0):  0.03481 x(0,0) + 0.03893 x(2,0) >= 1
cut_clique_1(6,0):  0.03446 x(0,0) + 0.03893 x(2,0) >= 1
cut_clique_1(7,0):  0.03446 x(0,0) + 0.03931 x(2,0) >= 1
cut_clique_1(8,0):  0.03462 x(0,0) + 0.03931 x(2,0) >= 1
cut_clique_1(9,0):  0.03462 x(0,0) + 0.03931 x(2,0) >= 1
cut_clique_1(10,0):  0.03635 x(0,0) + 0.03669 x(2,0) >= 1
cut_clique_1(11,0):  0.03545 x(0,0) + 0.03815 x(2,0) >= 1
cut_clique_1(12,0):  0.03545 x(0,0) + 0.03832 x(2,0) >= 1
cut_clique_1(13,0):  0.03616 x(0,0) + 0.03752 x(2,0) >= 1
cut_clique_1(14,0):  0.03688 x(0,0) + 0.03715 x(2,0) >= 1
cut_clique_1(15,0):  0.03532 x(0,0) + 0.03634 x(2,0) >= 1
cut_clique_1(16,0):  0.03673 x(0,0) + 0.03634 x(2,0) >= 1
cut_clique_1(17,0):  0.03673 x(0,0) + 0.03670 x(2,0) >= 1
cut_clique_1(18,0):  0.03587 x(0,0) + 0.03670 x(2,0) >= 1
cut_clique_1(19,0):  0.03587 x(0,0) + 0.03597 x(2,0) >= 1
cut_clique_1(20,0):  0.03587 x(0,0) + 0.03561 x(2,0) >= 1
cut_clique_1(21,0):  0.03730 x(0,0) + 0.03561 x(2,0) >= 1
cut_clique_1(22,0):  0.03693 x(0,0) + 0.03561 x(2,0) >= 1
cut_clique_1(23,0):  0.03619 x(0,0) + 0.03561 x(2,0) >= 1
cut_clique_1(24,0):  0.03619 x(0,0) + 0.03774 x(2,0) >= 1
cut_clique_1(25,0):  0.03619 x(0,0) + 0.03586 x(2,0) >= 1
cut_clique_1(26,0):  0.03800 x(0,0) + 0.03586 x(2,0) >= 1
cut_clique_1(27,0):  0.03648 x(0,0) + 0.03586 x(2,0) >= 1
cut_clique_1(28,0):  0.03976 x(0,0) + 0.03270 x(2,0) >= 1
cut_clique_1(29,0):  0.03976 x(0,0) + 0.03139 x(2,0) >= 1
cut_clique_1(30,0):  0.03976 x(0,0) + 0.03202 x(2,0) >= 1
cut_clique_1(31,0):  0.04056 x(0,0) + 0.03202 x(2,0) >= 1
cut_clique_1(32,0):  0.03893 x(0,0) + 0.03202 x(2,0) >= 1
cut_clique_1(33,0):  0.03971 x(0,0) + 0.03202 x(2,0) >= 1
cut_clique_1(34,0):  0.03932 x(0,0) + 0.03202 x(2,0) >= 1
cut_clique_1(35,0):  0.03932 x(0,0) + 0.03170 x(2,0) >= 1
cut_clique_1(36,0):  0.03971 x(0,0) + 0.03170 x(2,0) >= 1
cut_clique_1(37,0):  0.03971 x(0,0) + 0.03202 x(2,0) >= 1
cut_clique_1(38,0):  0.03971 x(0,0) + 0.03138 x(2,0) >= 1
cut_clique_1(0,1):  0.98391 x(0,1) + 0.72977 x(1,1) + 0.92706 x(2,1) >= 1
cut_clique_1(1,1):  0.99375 x(0,1) + 0.99984 x(1,1) + 0.99307 x(2,1) >= 1
cut_clique_1(2,1):  0.72012 x(0,1) + 0.84685 x(1,1) + 0.82860 x(2,1) >= 1
cut_clique_1(3,1):  0.98391 x(0,1) + 0.89017 x(1,1) + 0.95487 x(2,1) >= 1
cut_clique_1(4,1):  0.73452 x(0,1) + 0.82562 x(1,1) + 0.69669 x(2,1) >= 1
cut_clique_1(5,1):  0.98391 x(0,1) + 0.52828 x(1,1) + 0.92706 x(2,1) >= 1
cut_clique_1(6,1):  0.72012 x(0,1) + 0.86003 x(1,1) + 0.73382 x(2,1) >= 1
cut_clique_1(7,1):  0.98391 x(0,1) + 0.96139 x(1,1) + 0.95487 x(2,1) >= 1
cut_clique_1(8,1):  0.72012 x(0,1) + 0.91062 x(1,1) + 0.83537 x(2,1) >= 1
cut_clique_1(9,1):  0.72012 x(0,1) + 0.81907 x(1,1) + 0.72326 x(2,1) >= 1
cut_clique_1(10,1):  0.67978 x(0,1) + 0.99868 x(1,1) + 0.75939 x(2,1) >= 1
cut_clique_1(11,1):  0.72012 x(0,1) + 0.85644 x(1,1) + 0.82860 x(2,1) >= 1
cut_clique_1(12,1):  0.98391 x(0,1) + 0.58111 x(1,1) + 0.92706 x(2,1) >= 1
cut_clique_1(13,1):  0.99816 x(0,1) + 0.99984 x(1,1) + 0.99509 x(2,1) >= 1
cut_clique_1(14,1):  0.66107 x(0,1) + 0.89167 x(1,1) + 0.75939 x(2,1) >= 1
cut_clique_1(15,1):  0.72012 x(0,1) + 0.82562 x(1,1) + 0.73382 x(2,1) >= 1
cut_clique_1(16,1):  0.72012 x(0,1) + 0.86726 x(1,1) + 0.83537 x(2,1) >= 1
cut_clique_1(17,1):  0.72012 x(0,1) + 0.86003 x(1,1) + 0.82452 x(2,1) >= 1
cut_clique_1(18,1):  0.72012 x(0,1) + 0.86509 x(1,1) + 0.83537 x(2,1) >= 1
cut_clique_1(19,1):  0.72012 x(0,1) + 0.85644 x(1,1) + 0.76018 x(2,1) >= 1
cut_clique_1(20,1):  0.72012 x(0,1) + 0.88072 x(1,1) + 0.82860 x(2,1) >= 1
cut_clique_1(21,1):  0.99816 x(0,1) + 0.99984 x(1,1) + 0.99307 x(2,1) >= 1
cut_clique_1(22,1):  0.87599 x(0,1) + 0.44922 x(1,1) + 0.93643 x(2,1) >= 1
cut_clique_1(23,1):  0.60158 x(0,1) + 0.99868 x(1,1) + 0.75939 x(2,1) >= 1
cut_clique_1(24,1):  0.72012 x(0,1) + 0.81907 x(1,1) + 0.82189 x(2,1) >= 1
cut_clique_1(25,1):  0.66107 x(0,1) + 0.82562 x(1,1) + 0.75939 x(2,1) >= 1
cut_clique_1(26,1):  0.72012 x(0,1) + 0.88213 x(1,1) + 0.82860 x(2,1) >= 1
cut_clique_1(27,1):  0.87599 x(0,1) + 0.44663 x(1,1) + 0.93643 x(2,1) >= 1
cut_clique_1(28,1):  0.66107 x(0,1) + 0.99868 x(1,1) + 0.75939 x(2,1) >= 1
cut_clique_1(29,1):  0.72012 x(0,1) + 0.85644 x(1,1) + 0.83537 x(2,1) >= 1
cut_clique_1(30,1):  0.98391 x(0,1) + 0.99984 x(1,1) + 0.99307 x(2,1) >= 1
cut_clique_1(31,1):  0.91103 x(0,1) + 0.52828 x(1,1) + 0.93643 x(2,1) >= 1
cut_clique_1(32,1):  0.73452 x(0,1) + 0.82562 x(1,1) + 0.73382 x(2,1) >= 1
cut_clique_1(33,1):  0.67978 x(0,1) + 0.90880 x(1,1) + 0.75939 x(2,1) >= 1
cut_clique_1(34,1):  0.73452 x(0,1) + 0.82562 x(1,1) + 0.68979 x(2,1) >= 1
cut_clique_1(35,1):  0.73452 x(0,1) + 0.82562 x(1,1) + 0.75939 x(2,1) >= 1
cut_clique_1(36,1):  0.98391 x(0,1) + 0.78085 x(1,1) + 0.92706 x(2,1) >= 1
cut_clique_1(37,1):  0.67978 x(0,1) + 0.90880 x(1,1) + 0.64548 x(2,1) >= 1
cut_clique_1(38,1):  0.72012 x(0,1) + 0.88072 x(1,1) + 0.75403 x(2,1) >= 1
cut_clique_1(39,1):  0.87599 x(0,1) + 0.47789 x(1,1) + 0.93643 x(2,1) >= 1
cut_clique_1(40,1):  0.72012 x(0,1) + 0.88072 x(1,1) + 0.82189 x(2,1) >= 1
cut_clique_1(41,1):  0.98391 x(0,1) + 0.71546 x(1,1) + 0.92706 x(2,1) >= 1
cut_clique_1(42,1):  0.87599 x(0,1) + 0.52828 x(1,1) + 0.93643 x(2,1) >= 1
cut_clique_1(43,1):  0.87599 x(0,1) + 0.47168 x(1,1) + 0.93643 x(2,1) >= 1
cut_clique_1(44,1):  0.91103 x(0,1) + 0.52828 x(1,1) + 0.92706 x(2,1) >= 1
cut_clique_1(45,1):  0.72012 x(0,1) + 0.86726 x(1,1) + 0.91798 x(2,1) >= 1
cut_clique_1(46,1):  0.98391 x(0,1) + 0.99984 x(1,1) + 0.95487 x(2,1) >= 1
cut_clique_1(47,1):  0.72012 x(0,1) + 0.86003 x(1,1) + 0.72326 x(2,1) >= 1
cut_clique_1(48,1):  0.98391 x(0,1) + 0.62760 x(1,1) + 0.92706 x(2,1) >= 1
cut_clique_1(49,1):  0.98391 x(0,1) + 0.78085 x(1,1) + 0.95487 x(2,1) >= 1
cut_clique_1(0,2):  0.04732 x(0,2) + 0.05829 x(1,2) >= 1
cut_clique_1(1,2):  0.03642 x(0,2) + 0.07002 x(1,2) >= 1
cut_clique_1(2,2):  0.04263 x(0,2) + 0.06884 x(1,2) >= 1
cut_clique_1(3,2):  0.03680 x(0,2) + 0.07365 x(1,2) >= 1
cut_clique_1(4,2):  0.04732 x(0,2) + 0.05946 x(1,2) >= 1
cut_clique_1(5,2):  0.04590 x(0,2) + 0.05946 x(1,2) >= 1
cut_clique_1(6,2):  0.03692 x(0,2) + 0.07080 x(1,2) >= 1
cut_clique_1(7,2):  0.03970 x(0,2) + 0.07080 x(1,2) >= 1
cut_clique_1(8,2):  0.04263 x(0,2) + 0.06677 x(1,2) >= 1
cut_clique_1(9,2):  0.04590 x(0,2) + 0.06303 x(1,2) >= 1
cut_clique_1(10,2):  0.04315 x(0,2) + 0.05798 x(1,2) >= 1
cut_clique_1(11,2):  0.03692 x(0,2) + 0.06916 x(1,2) >= 1
cut_clique_1(12,2):  0.03652 x(0,2) + 0.07014 x(1,2) >= 1
cut_clique_1(13,2):  0.04588 x(0,2) + 0.06155 x(1,2) >= 1
cut_clique_1(14,2):  0.04588 x(0,2) + 0.05970 x(1,2) >= 1
cut_clique_1(15,2):  0.03472 x(0,2) + 0.07365 x(1,2) >= 1
cut_clique_1(16,2):  0.03642 x(0,2) + 0.07073 x(1,2) >= 1
cut_clique_1(17,2):  0.03607 x(0,2) + 0.07365 x(1,2) >= 1
cut_clique_1(18,2):  0.04315 x(0,2) + 0.06436 x(1,2) >= 1
cut_clique_1(19,2):  0.04315 x(0,2) + 0.06303 x(1,2) >= 1
cut_clique_1(20,2):  0.03579 x(0,2) + 0.07365 x(1,2) >= 1
cut_clique_1(21,2):  0.04024 x(0,2) + 0.06916 x(1,2) >= 1
cut_clique_1(22,2):  0.03689 x(0,2) + 0.07014 x(1,2) >= 1
cut_clique_1(23,2):  0.03689 x(0,2) + 0.07306 x(1,2) >= 1
cut_clique_1(24,2):  0.03692 x(0,2) + 0.07285 x(1,2) >= 1
cut_clique_1(25,2):  0.03607 x(0,2) + 0.07218 x(1,2) >= 1
cut_clique_1(26,2):  0.03607 x(0,2) + 0.07073 x(1,2) >= 1
cut_clique_1(27,2):  0.04021 x(0,2) + 0.06557 x(1,2) >= 1
cut_clique_1(28,2):  0.04021 x(0,2) + 0.06426 x(1,2) >= 1
cut_clique_1(29,2):  0.04021 x(0,2) + 0.06554 x(1,2) >= 1
cut_clique_1(30,2):  0.04021 x(0,2) + 0.06358 x(1,2) >= 1
cut_clique_1(31,2):  0.04463 x(0,2) + 0.06358 x(1,2) >= 1
cut_clique_1(32,2):  0.04463 x(0,2) + 0.06548 x(1,2) >= 1
cut_clique_1(33,2):  0.03972 x(0,2) + 0.06548 x(1,2) >= 1
cut_clique_1(34,2):  0.03972 x(0,2) + 0.06614 x(1,2) >= 1
cut_clique_1(35,2):  0.03972 x(0,2) + 0.06945 x(1,2) >= 1
cut_clique_1(36,2):  0.03652 x(0,2) + 0.07365 x(1,2) >= 1
cut_clique_1(37,2):  0.03679 x(0,2) + 0.07073 x(1,2) >= 1
cut_clique_1(38,2):  0.04250 x(0,2) + 0.06922 x(1,2) >= 1
cut_clique_1(39,2):  0.04250 x(0,2) + 0.06092 x(1,2) >= 1
cut_clique_1(40,2):  0.04250 x(0,2) + 0.05787 x(1,2) >= 1
cut_clique_1(41,2):  0.04377 x(0,2) + 0.05787 x(1,2) >= 1
cut_clique_1(42,2):  0.04290 x(0,2) + 0.05787 x(1,2) >= 1
cut_clique_1(43,2):  0.04290 x(0,2) + 0.06308 x(1,2) >= 1
cut_clique_1(44,2):  0.04590 x(0,2) + 0.06308 x(1,2) >= 1
cut_clique_1(45,2):  0.04590 x(0,2) + 0.06434 x(1,2) >= 1
cut_clique_1(46,2):  0.03948 x(0,2) + 0.06434 x(1,2) >= 1
cut_clique_1(47,2):  0.03948 x(0,2) + 0.06498 x(1,2) >= 1
cut_clique_1(48,2):  0.03948 x(0,2) + 0.06433 x(1,2) >= 1
cut_clique_1(49,2):  0.03948 x(0,2) + 0.06884 x(1,2) >= 1
cut_clique_2(0,1):  0.74290 x(0,1) + 0.86235 x(2,1) >= 1
cut_clique_2(1,1):  0.62873 x(0,1) + 0.79866 x(2,1) >= 1
cut_clique_2(2,1):  0.65887 x(0,1) + 0.94266 x(2,1) >= 1
cut_clique_2(3,1):  0.76920 x(0,1) + 0.72666 x(2,1) >= 1
cut_clique_2(4,1):  0.62158 x(0,1) + 0.85353 x(2,1) >= 1
cut_clique_2(5,1):  0.87400 x(0,1) + 0.85915 x(2,1) >= 1
cut_clique_2(6,1):  0.62158 x(0,1) + 0.99248 x(2,1) >= 1
cut_clique_2(7,1):  0.78747 x(0,1) + 0.92271 x(2,1) >= 1
cut_clique_2(8,1):  0.57682 x(0,1) + 0.88740 x(2,1) >= 1
cut_clique_2(9,1):  0.92090 x(0,1) + 0.99771 x(2,1) >= 1
cut_clique_2(10,1):  0.69297 x(0,1) + 0.78430 x(2,1) >= 1
cut_clique_2(11,1):  0.87400 x(0,1) + 0.78395 x(2,1) >= 1
cut_clique_2(12,1):  0.64811 x(0,1) + 0.79232 x(2,1) >= 1
cut_clique_2(13,1):  0.44408 x(0,1) + 0.94145 x(2,1) >= 1
cut_clique_2(14,1):  0.81312 x(0,1) + 0.99771 x(2,1) >= 1
cut_clique_2(15,1):  0.74598 x(0,1) + 0.99771 x(2,1) >= 1
cut_clique_2(16,1):  0.69297 x(0,1) + 0.72666 x(2,1) >= 1
cut_clique_2(17,1):  0.87400 x(0,1) + 0.97084 x(2,1) >= 1
cut_clique_2(18,1):  0.78747 x(0,1) + 0.86235 x(2,1) >= 1
cut_clique_2(19,1):  0.87400 x(0,1) + 0.82521 x(2,1) >= 1
cut_clique_2(20,1):  0.89443 x(0,1) + 0.99771 x(2,1) >= 1
cut_clique_2(21,1):  0.48270 x(0,1) + 0.94145 x(2,1) >= 1
cut_clique_2(22,1):  0.60010 x(0,1) + 0.79232 x(2,1) >= 1
cut_clique_2(23,1):  0.62158 x(0,1) + 0.85626 x(2,1) >= 1
cut_clique_2(24,1):  0.84854 x(0,1) + 0.85915 x(2,1) >= 1
cut_clique_2(25,1):  0.78703 x(0,1) + 0.63131 x(2,1) >= 1
cut_clique_2(26,1):  0.98537 x(0,1) + 0.99771 x(2,1) >= 1
cut_clique_2(27,1):  0.62873 x(0,1) + 0.80665 x(2,1) >= 1
cut_clique_2(28,1):  0.60010 x(0,1) + 0.89025 x(2,1) >= 1
cut_clique_2(29,1):  0.65887 x(0,1) + 0.85626 x(2,1) >= 1
cut_clique_2(30,1):  0.48757 x(0,1) + 0.92372 x(2,1) >= 1
cut_clique_2(31,1):  0.62158 x(0,1) + 0.97303 x(2,1) >= 1
cut_clique_2(32,1):  0.54525 x(0,1) + 0.92764 x(2,1) >= 1
cut_clique_2(33,1):  0.54525 x(0,1) + 0.98265 x(2,1) >= 1
cut_clique_2(34,1):  0.62158 x(0,1) + 0.98265 x(2,1) >= 1
cut_clique_2(35,1):  0.65887 x(0,1) + 0.86483 x(2,1) >= 1
cut_clique_2(36,1):  0.66920 x(0,1) + 0.72666 x(2,1) >= 1
cut_clique_2(37,1):  0.74290 x(0,1) + 0.78395 x(2,1) >= 1
cut_clique_2(38,1):  0.93020 x(0,1) + 0.99771 x(2,1) >= 1
cut_clique_2(39,1):  0.74598 x(0,1) + 0.92381 x(2,1) >= 1
cut_clique_2(40,1):  0.72680 x(0,1) + 0.71375 x(2,1) >= 1
cut_clique_2(41,1):  0.99522 x(0,1) + 0.99771 x(2,1) >= 1
cut_clique_2(42,1):  0.54525 x(0,1) + 0.91837 x(2,1) >= 1
cut_clique_2(43,1):  0.78703 x(0,1) + 0.61237 x(2,1) >= 1
cut_clique_2(44,1):  0.69297 x(0,1) + 0.92271 x(2,1) >= 1
cut_clique_2(45,1):  0.48270 x(0,1) + 0.92372 x(2,1) >= 1
cut_clique_2(46,1):  0.73135 x(0,1) + 0.94266 x(2,1) >= 1
cut_clique_2(47,1):  0.69297 x(0,1) + 0.85489 x(2,1) >= 1
cut_clique_2(48,1):  0.84854 x(0,1) + 0.78104 x(2,1) >= 1
cut_clique_2(49,1):  0.73135 x(0,1) + 0.92381 x(2,1) >= 1
cut_clique_2(0,2):  0.05204 x(0,2) + 0.05148 x(2,2) >= 1
cut_clique_2(1,2):  0.05204 x(0,2) + 0.04811 x(2,2) >= 1
cut_clique_2(2,2):  0.04607 x(0,2) + 0.05740 x(2,2) >= 1
cut_clique_2(3,2):  0.04944 x(0,2) + 0.05663 x(2,2) >= 1
cut_clique_2(4,2):  0.04607 x(0,2) + 0.05947 x(2,2) >= 1
cut_clique_2(5,2):  0.04747 x(0,2) + 0.05874 x(2,2) >= 1
cut_clique_2(6,2):  0.04606 x(0,2) + 0.05739 x(2,2) >= 1
cut_clique_2(7,2):  0.04561 x(0,2) + 0.05980 x(2,2) >= 1
cut_clique_2(8,2):  0.04510 x(0,2) + 0.05924 x(2,2) >= 1
cut_clique_2(9,2):  0.05696 x(0,2) + 0.04610 x(2,2) >= 1
cut_clique_2(10,2):  0.05696 x(0,2) + 0.04518 x(2,2) >= 1
cut_clique_2(11,2):  0.04561 x(0,2) + 0.05980 x(2,2) >= 1
cut_clique_2(12,2):  0.04607 x(0,2) + 0.05863 x(2,2) >= 1
cut_clique_2(13,2):  0.04944 x(0,2) + 0.05173 x(2,2) >= 1
cut_clique_2(14,2):  0.04894 x(0,2) + 0.05703 x(2,2) >= 1
cut_clique_2(15,2):  0.04561 x(0,2) + 0.05920 x(2,2) >= 1
cut_clique_2(16,2):  0.05204 x(0,2) + 0.05403 x(2,2) >= 1
cut_clique_2(17,2):  0.04843 x(0,2) + 0.05716 x(2,2) >= 1
cut_clique_2(18,2):  0.04944 x(0,2) + 0.05380 x(2,2) >= 1
cut_clique_2(19,2):  0.04607 x(0,2) + 0.06039 x(2,2) >= 1
cut_clique_2(20,2):  0.04562 x(0,2) + 0.05947 x(2,2) >= 1
cut_clique_2(21,2):  0.05454 x(0,2) + 0.04595 x(2,2) >= 1
cut_clique_2(22,2):  0.05399 x(0,2) + 0.04595 x(2,2) >= 1
cut_clique_2(23,2):  0.04606 x(0,2) + 0.05740 x(2,2) >= 1
cut_clique_2(24,2):  0.04694 x(0,2) + 0.05889 x(2,2) >= 1
cut_clique_2(25,2):  0.05166 x(0,2) + 0.05193 x(2,2) >= 1
cut_clique_2(26,2):  0.04839 x(0,2) + 0.05831 x(2,2) >= 1
cut_clique_2(27,2):  0.04843 x(0,2) + 0.05548 x(2,2) >= 1
cut_clique_2(28,2):  0.04694 x(0,2) + 0.05830 x(2,2) >= 1
cut_clique_2(29,2):  0.04894 x(0,2) + 0.05380 x(2,2) >= 1
cut_clique_2(30,2):  0.04654 x(0,2) + 0.05947 x(2,2) >= 1
cut_clique_2(31,2):  0.04653 x(0,2) + 0.05740 x(2,2) >= 1
cut_clique_2(32,2):  0.04698 x(0,2) + 0.05831 x(2,2) >= 1
cut_clique_2(33,2):  0.04944 x(0,2) + 0.05607 x(2,2) >= 1
cut_clique_2(34,2):  0.04843 x(0,2) + 0.05604 x(2,2) >= 1
cut_clique_2(35,2):  0.04562 x(0,2) + 0.05888 x(2,2) >= 1
cut_clique_2(36,2):  0.04698 x(0,2) + 0.05716 x(2,2) >= 1
cut_clique_2(37,2):  0.04562 x(0,2) + 0.05830 x(2,2) >= 1
cut_clique_2(38,2):  0.04698 x(0,2) + 0.05773 x(2,2) >= 1
cut_clique_2(39,2):  0.04600 x(0,2) + 0.05924 x(2,2) >= 1
cut_clique_2(40,2):  0.05676 x(0,2) + 0.04609 x(2,2) >= 1
cut_clique_2(41,2):  0.05676 x(0,2) + 0.04656 x(2,2) >= 1
cut_clique_2(42,2):  0.04694 x(0,2) + 0.05831 x(2,2) >= 1
cut_clique_2(43,2):  0.05051 x(0,2) + 0.05121 x(2,2) >= 1
cut_clique_2(44,2):  0.05051 x(0,2) + 0.05224 x(2,2) >= 1
cut_clique_2(45,2):  0.04607 x(0,2) + 0.05980 x(2,2) >= 1
cut_clique_2(46,2):  0.04606 x(0,2) + 0.05797 x(2,2) >= 1
cut_clique_2(47,2):  0.04607 x(0,2) + 0.05980 x(2,2) >= 1
cut_clique_2(48,2):  0.05152 x(0,2) + 0.05468 x(2,2) >= 1
cut_clique_2(49,2):  0.04607 x(0,2) + 0.05798 x(2,2) >= 1
cut_clique_3(0,1):  0.74388 x(0,1) + 0.14413 x(1,1) >= 1
cut_clique_3(1,1):  0.73864 x(0,1) + 0.15673 x(1,1) >= 1
cut_clique_3(2,1):  0.76080 x(0,1) + 0.15673 x(1,1) >= 1
cut_clique_3(3,1):  0.83688 x(0,1) + 0.15673 x(1,1) >= 1
cut_clique_3(4,1):  0.83688 x(0,1) + 0.16770 x(1,1) >= 1
cut_clique_3(5,1):  0.83688 x(0,1) + 0.14590 x(1,1) >= 1
cut_clique_3(6,1):  0.95761 x(0,1) + 0.14590 x(1,1) >= 1
cut_clique_3(7,1):  0.77676 x(0,1) + 0.15333 x(1,1) >= 1
cut_clique_3(8,1):  0.99258 x(0,1) + 0.99638 x(1,1) + 0.00011 x(2,1) >= 1
cut_clique_3(9,1):  0.99258 x(0,1) + 0.99638 x(1,1) + 0.00008 x(2,1) >= 1
cut_clique_3(10,1):  0.99258 x(0,1) + 0.99638 x(1,1) + 0.00033 x(2,1) >= 1
cut_clique_3(11,1):  0.99258 x(0,1) + 0.99638 x(1,1) + 0.00032 x(2,1) >= 1
cut_clique_3(12,1):  0.99258 x(0,1) + 0.99638 x(1,1) + 0.00023 x(2,1) >= 1
cut_clique_3(13,1):  0.99258 x(0,1) + 0.99638 x(1,1) + 0.00043 x(2,1) >= 1
cut_clique_3(14,1):  0.99258 x(0,1) + 0.99638 x(1,1) + 0.00035 x(2,1) >= 1
cut_clique_3(15,1):  0.99258 x(0,1) + 0.99638 x(1,1) + 0.00003 x(2,1) >= 1
cut_clique_3(16,1):  0.99258 x(0,1) + 0.99638 x(1,1) + 0.00017 x(2,1) >= 1
cut_clique_3(17,1):  0.99258 x(0,1) + 0.99638 x(1,1) + 0.00015 x(2,1) >= 1
cut_clique_3(18,1):  0.99258 x(0,1) + 0.99638 x(1,1) + 0.00004 x(2,1) >= 1
cut_clique_3(19,1):  0.99258 x(0,1) + 0.99638 x(1,1) + 0.00017 x(2,1) >= 1
cut_clique_3(20,1):  0.99258 x(0,1) + 0.99638 x(1,1) + 0.00002 x(2,1) >= 1
cut_clique_3(21,1):  0.99258 x(0,1) + 0.99638 x(1,1) + 0.00058 x(2,1) >= 1
cut_clique_3(22,1):  0.99258 x(0,1) + 0.99638 x(1,1) + 0.00013 x(2,1) >= 1
cut_clique_3(23,1):  0.99258 x(0,1) + 0.99638 x(1,1) + 0.00013 x(2,1) >= 1
cut_clique_3(24,1):  0.99258 x(0,1) + 0.99638 x(1,1) + 0.00013 x(2,1) >= 1
cut_clique_3(25,1):  0.99258 x(0,1) + 0.99638 x(1,1) + 0.00008 x(2,1) >= 1
cut_clique_3(26,1):  0.99258 x(0,1) + 0.99638 x(1,1) + 0.00002 x(2,1) >= 1
cut_clique_3(27,1):  0.99258 x(0,1) + 0.99638 x(1,1) + 0.00002 x(2,1) >= 1
cut_clique_3(28,1):  0.99258 x(0,1) + 0.99638 x(1,1) + 0.00005 x(2,1) >= 1
cut_clique_3(29,1):  0.99258 x(0,1) + 0.99638 x(1,1) + 0.00002 x(2,1) >= 1
cut_clique_3(30,1):  0.99258 x(0,1) + 0.99638 x(1,1) + 0.00019 x(2,1) >= 1
cut_clique_3(31,1):  0.99258 x(0,1) + 0.99638 x(1,1) + 0.00010 x(2,1) >= 1
cut_clique_3(32,1):  0.99258 x(0,1) + 0.99638 x(1,1) + 0.00023 x(2,1) >= 1
cut_clique_3(33,1):  0.99258 x(0,1) + 0.99638 x(1,1) + 0.00009 x(2,1) >= 1
cut_clique_3(34,1):  0.99258 x(0,1) + 0.99638 x(1,1) + 0.00036 x(2,1) >= 1
cut_clique_3(35,1):  0.99258 x(0,1) + 0.99638 x(1,1) + 0.00042 x(2,1) >= 1
cut_clique_3(36,1):  0.99258 x(0,1) + 0.99638 x(1,1) + 0.00002 x(2,1) >= 1
cut_clique_3(37,1):  0.99258 x(0,1) + 0.99638 x(1,1) + 0.00029 x(2,1) >= 1
cut_clique_3(38,1):  0.99258 x(0,1) + 0.99638 x(1,1) + 0.00006 x(2,1) >= 1
cut_clique_3(39,1):  0.99258 x(0,1) + 0.99638 x(1,1) >= 1
cut_clique_3(40,1):  0.99258 x(0,1) + 0.99638 x(1,1) + 0.00067 x(2,1) >= 1
cut_clique_3(41,1):  0.99258 x(0,1) + 0.99638 x(1,1) + 0.00050 x(2,1) >= 1
cut_clique_3(42,1):  0.99258 x(0,1) + 0.99638 x(1,1) + 0.00004 x(2,1) >= 1
cut_clique_3(43,1):  0.99258 x(0,1) + 0.99638 x(1,1) + 0.00003 x(2,1) >= 1
cut_clique_3(44,1):  0.99258 x(0,1) + 0.99638 x(1,1) + 0.00003 x(2,1) >= 1
cut_clique_3(45,1):  0.99258 x(0,1) + 0.99638 x(1,1) + 0.00026 x(2,1) >= 1
cut_clique_3(46,1):  0.99258 x(0,1) + 0.99638 x(1,1) + 0.00005 x(2,1) >= 1
cut_clique_3(47,1):  0.99258 x(0,1) + 0.99638 x(1,1) + 0.00006 x(2,1) >= 1
cut_clique_3(48,1):  0.99258 x(0,1) + 0.99638 x(1,1) + 0.00002 x(2,1) >= 1
cut_clique_3(49,1):  0.99258 x(0,1) + 0.99638 x(1,1) + 0.00041 x(2,1) >= 1
cut_clique_3(0,2):  0.05578 x(1,2) + 0.04430 x(2,2) >= 1
cut_clique_4(0,1):  0.99664 x(1,1) + 0.99892 x(2,1) >= 1
cut_clique_4(1,1):  0.99664 x(1,1) + 0.99892 x(2,1) >= 1
cut_clique_4(2,1):  0.99664 x(1,1) + 0.99892 x(2,1) >= 1
cut_clique_4(3,1):  0.99664 x(1,1) + 0.99892 x(2,1) >= 1
cut_clique_4(4,1):  0.99664 x(1,1) + 0.99892 x(2,1) >= 1
cut_clique_4(5,1):  0.99664 x(1,1) + 0.99892 x(2,1) >= 1
cut_clique_4(6,1):  0.99664 x(1,1) + 0.99892 x(2,1) >= 1
cut_clique_4(7,1):  0.99664 x(1,1) + 0.99892 x(2,1) >= 1
cut_clique_4(8,1):  0.99664 x(1,1) + 0.99892 x(2,1) >= 1
cut_clique_4(9,1):  0.99664 x(1,1) + 0.99892 x(2,1) >= 1
cut_clique_4(10,1):  0.99664 x(1,1) + 0.99892 x(2,1) >= 1
cut_clique_4(11,1):  0.99664 x(1,1) + 0.99892 x(2,1) >= 1
cut_clique_4(12,1):  0.99664 x(1,1) + 0.99892 x(2,1) >= 1
cut_clique_4(13,1):  0.99664 x(1,1) + 0.99892 x(2,1) >= 1
cut_clique_4(14,1):  0.99664 x(1,1) + 0.99892 x(2,1) >= 1
cut_clique_4(15,1):  0.99664 x(1,1) + 0.99892 x(2,1) >= 1
cut_clique_4(16,1):  0.99664 x(1,1) + 0.99892 x(2,1) >= 1
cut_clique_4(17,1):  0.99664 x(1,1) + 0.99892 x(2,1) >= 1
cut_clique_4(18,1):  0.99664 x(1,1) + 0.99892 x(2,1) >= 1
cut_clique_4(19,1):  0.99664 x(1,1) + 0.99892 x(2,1) >= 1
cut_clique_4(20,1):  0.99664 x(1,1) + 0.99892 x(2,1) >= 1
cut_clique_4(21,1):  0.99664 x(1,1) + 0.99892 x(2,1) >= 1
cut_clique_4(22,1):  0.99664 x(1,1) + 0.99892 x(2,1) >= 1
cut_clique_4(23,1):  0.99664 x(1,1) + 0.99892 x(2,1) >= 1
cut_clique_4(24,1):  0.99664 x(1,1) + 0.99892 x(2,1) >= 1
cut_clique_4(25,1):  0.99664 x(1,1) + 0.99892 x(2,1) >= 1
cut_clique_4(26,1):  0.99664 x(1,1) + 0.99892 x(2,1) >= 1
cut_clique_4(27,1):  0.99664 x(1,1) + 0.99892 x(2,1) >= 1
cut_clique_4(28,1):  0.99664 x(1,1) + 0.99892 x(2,1) >= 1
cut_clique_4(29,1):  0.99664 x(1,1) + 0.99892 x(2,1) >= 1
cut_clique_4(30,1):  0.99664 x(1,1) + 0.99892 x(2,1) >= 1
cut_clique_4(31,1):  0.99664 x(1,1) + 0.99892 x(2,1) >= 1
cut_clique_4(32,1):  0.99664 x(1,1) + 0.99892 x(2,1) >= 1
cut_clique_4(33,1):  0.99664 x(1,1) + 0.99892 x(2,1) >= 1
cut_clique_4(34,1):  0.99664 x(1,1) + 0.99892 x(2,1) >= 1
cut_clique_4(35,1):  0.99664 x(1,1) + 0.99892 x(2,1) >= 1
cut_clique_4(36,1):  0.99664 x(1,1) + 0.99892 x(2,1) >= 1
cut_clique_4(37,1):  0.99664 x(1,1) + 0.99892 x(2,1) >= 1
cut_clique_4(38,1):  0.99664 x(1,1) + 0.99892 x(2,1) >= 1
cut_clique_4(39,1):  0.99664 x(1,1) + 0.99892 x(2,1) >= 1
cut_clique_4(40,1):  0.99664 x(1,1) + 0.99892 x(2,1) >= 1
cut_clique_4(41,1):  0.99664 x(1,1) + 0.99892 x(2,1) >= 1
cut_clique_4(42,1):  0.99664 x(1,1) + 0.99892 x(2,1) >= 1
cut_clique_4(43,1):  0.99664 x(1,1) + 0.99892 x(2,1) >= 1
cut_clique_4(44,1):  0.99664 x(1,1) + 0.99892 x(2,1) >= 1
cut_clique_4(45,1):  0.99664 x(1,1) + 0.99892 x(2,1) >= 1
cut_clique_4(46,1):  0.99664 x(1,1) + 0.99892 x(2,1) >= 1
cut_clique_4(47,1):  0.99664 x(1,1) + 0.99892 x(2,1) >= 1
cut_clique_4(48,1):  0.99664 x(1,1) + 0.99892 x(2,1) >= 1
cut_clique_4(49,1):  0.99664 x(1,1) + 0.99892 x(2,1) >= 1
cut_clique_5(0,1):  0.08698 x(0,1) + 0.99689 x(1,1) + 0.05930 x(2,1) >= 1
cut_clique_5(1,1):  0.08698 x(0,1) + 0.79114 x(1,1) + 0.05930 x(2,1) >= 1
cut_clique_5(2,1):  0.08698 x(0,1) + 0.47485 x(1,1) + 0.05930 x(2,1) >= 1
cut_clique_5(3,1):  0.08698 x(0,1) + 0.39721 x(1,1) + 0.05930 x(2,1) >= 1
cut_clique_5(4,1):  0.08698 x(0,1) + 0.38647 x(1,1) + 0.05930 x(2,1) >= 1
cut_clique_5(5,1):  0.08698 x(0,1) + 0.43707 x(1,1) + 0.05930 x(2,1) >= 1
cut_clique_5(6,1):  0.08698 x(0,1) + 0.40952 x(1,1) + 0.05930 x(2,1) >= 1
cut_clique_5(7,1):  0.08698 x(0,1) + 0.45172 x(1,1) + 0.05930 x(2,1) >= 1
cut_clique_5(8,1):  0.08698 x(0,1) + 0.43493 x(1,1) + 0.05930 x(2,1) >= 1
cut_clique_5(9,1):  0.08698 x(0,1) + 0.71921 x(1,1) + 0.05930 x(2,1) >= 1
cut_clique_5(10,1):  0.08698 x(0,1) + 0.40257 x(1,1) + 0.05930 x(2,1) >= 1
cut_clique_5(11,1):  0.08698 x(0,1) + 0.41464 x(1,1) + 0.05930 x(2,1) >= 1
cut_clique_5(12,1):  0.08698 x(0,1) + 0.38776 x(1,1) + 0.05930 x(2,1) >= 1
cut_clique_5(13,1):  0.08698 x(0,1) + 0.43760 x(1,1) + 0.05930 x(2,1) >= 1
cut_clique_5(14,1):  0.08698 x(0,1) + 0.40647 x(1,1) + 0.05930 x(2,1) >= 1
cut_clique_5(15,1):  0.08698 x(0,1) + 0.52985 x(1,1) + 0.05930 x(2,1) >= 1
cut_clique_5(16,1):  0.08698 x(0,1) + 0.38741 x(1,1) + 0.05930 x(2,1) >= 1
cut_clique_5(17,1):  0.08698 x(0,1) + 0.46102 x(1,1) + 0.05930 x(2,1) >= 1
cut_clique_5(18,1):  0.08698 x(0,1) + 0.38273 x(1,1) + 0.05930 x(2,1) >= 1
cut_clique_5(19,1):  0.08698 x(0,1) + 0.41065 x(1,1) + 0.05930 x(2,1) >= 1
cut_clique_5(20,1):  0.08698 x(0,1) + 0.41568 x(1,1) + 0.05930 x(2,1) >= 1
cut_clique_5(21,1):  0.08698 x(0,1) + 0.52130 x(1,1) + 0.05930 x(2,1) >= 1
cut_clique_5(22,1):  0.08698 x(0,1) + 0.39831 x(1,1) + 0.05930 x(2,1) >= 1
cut_clique_5(23,1):  0.08698 x(0,1) + 0.67850 x(1,1) + 0.05930 x(2,1) >= 1
cut_clique_5(24,1):  0.08698 x(0,1) + 0.49060 x(1,1) + 0.05930 x(2,1) >= 1
cut_clique_5(25,1):  0.08698 x(0,1) + 0.45189 x(1,1) + 0.05930 x(2,1) >= 1
cut_clique_5(26,1):  0.08698 x(0,1) + 0.91376 x(1,1) + 0.05930 x(2,1) >= 1
cut_clique_5(27,1):  0.08698 x(0,1) + 0.40147 x(1,1) + 0.05930 x(2,1) >= 1
cut_clique_5(28,1):  0.08698 x(0,1) + 0.90462 x(1,1) + 0.05930 x(2,1) >= 1
cut_clique_5(29,1):  0.08698 x(0,1) + 0.41233 x(1,1) + 0.05930 x(2,1) >= 1
cut_clique_5(30,1):  0.08698 x(0,1) + 0.45680 x(1,1) + 0.05930 x(2,1) >= 1
cut_clique_5(31,1):  0.08698 x(0,1) + 0.42010 x(1,1) + 0.05930 x(2,1) >= 1
cut_clique_5(32,1):  0.08698 x(0,1) + 0.41153 x(1,1) + 0.05930 x(2,1) >= 1
cut_clique_5(33,1):  0.08698 x(0,1) + 0.54554 x(1,1) + 0.05930 x(2,1) >= 1
cut_clique_5(34,1):  0.08698 x(0,1) + 0.65874 x(1,1) + 0.05930 x(2,1) >= 1
cut_clique_5(35,1):  0.08698 x(0,1) + 0.48574 x(1,1) + 0.05930 x(2,1) >= 1
cut_clique_5(36,1):  0.08698 x(0,1) + 0.47156 x(1,1) + 0.05930 x(2,1) >= 1
cut_clique_5(37,1):  0.08698 x(0,1) + 0.43622 x(1,1) + 0.05930 x(2,1) >= 1
cut_clique_5(38,1):  0.08698 x(0,1) + 0.50612 x(1,1) + 0.05930 x(2,1) >= 1
cut_clique_5(39,1):  0.08698 x(0,1) + 0.59950 x(1,1) + 0.05930 x(2,1) >= 1
cut_clique_5(40,1):  0.08698 x(0,1) + 0.89558 x(1,1) + 0.05930 x(2,1) >= 1
cut_clique_5(41,1):  0.08698 x(0,1) + 0.45047 x(1,1) + 0.05930 x(2,1) >= 1
cut_clique_5(42,1):  0.08698 x(0,1) + 0.62737 x(1,1) + 0.05930 x(2,1) >= 1
cut_clique_5(43,1):  0.08698 x(0,1) + 0.41491 x(1,1) + 0.05930 x(2,1) >= 1
cut_clique_5(44,1):  0.08698 x(0,1) + 0.38178 x(1,1) + 0.05930 x(2,1) >= 1
cut_clique_5(45,1):  0.08698 x(0,1) + 0.98702 x(1,1) + 0.05930 x(2,1) >= 1
cut_clique_5(46,1):  0.08698 x(0,1) + 0.39489 x(1,1) + 0.05930 x(2,1) >= 1
cut_clique_5(47,1):  0.08698 x(0,1) + 0.87025 x(1,1) + 0.05930 x(2,1) >= 1
cut_clique_5(48,1):  0.08698 x(0,1) + 0.92244 x(1,1) + 0.05930 x(2,1) >= 1
cut_clique_5(49,1):  0.08698 x(0,1) + 0.41498 x(1,1) + 0.05930 x(2,1) >= 1
cut_clique_6(0,1):  0.14857 x(0,1) + 0.14298 x(2,1) >= 1
cut_clique_6(1,1):  0.14560 x(0,1) + 0.14298 x(2,1) >= 1
cut_clique_6(2,1):  0.15725 x(0,1) + 0.14298 x(2,1) >= 1
cut_clique_6(3,1):  0.07058 x(0,1) + 0.03639 x(1,1) + 0.07036 x(2,1) >= 1
cut_clique_6(4,1):  0.16027 x(0,1) + 0.14298 x(2,1) >= 1
cut_clique_6(5,1):  0.16235 x(0,1) + 0.04948 x(1,1) + 0.09966 x(2,1) >= 1
cut_clique_6(6,1):  0.16235 x(0,1) + 0.05982 x(1,1) + 0.09966 x(2,1) >= 1
cut_clique_6(7,1):  0.17053 x(0,1) + 0.04948 x(1,1) + 0.09966 x(2,1) >= 1
cut_clique_6(8,1):  0.16235 x(0,1) + 0.05808 x(1,1) + 0.09966 x(2,1) >= 1
cut_clique_6(9,1):  0.15611 x(0,1) + 0.05531 x(1,1) + 0.11325 x(2,1) >= 1
cut_clique_6(10,1):  0.16235 x(0,1) + 0.05623 x(1,1) + 0.09966 x(2,1) >= 1
cut_clique_6(11,1):  0.07129 x(0,1) + 0.03639 x(1,1) + 0.07036 x(2,1) >= 1
cut_clique_6(12,1):  0.18659 x(0,1) + 0.04206 x(1,1) + 0.10564 x(2,1) >= 1
cut_clique_6(13,1):  0.16235 x(0,1) + 0.05531 x(1,1) + 0.09966 x(2,1) >= 1
cut_clique_6(14,1):  0.09160 x(0,1) + 0.03639 x(1,1) + 0.07329 x(2,1) >= 1
cut_clique_6(15,1):  0.07275 x(0,1) + 0.03639 x(1,1) + 0.07329 x(2,1) >= 1
cut_clique_6(16,1):  0.18659 x(0,1) + 0.04206 x(1,1) + 0.10036 x(2,1) >= 1
cut_clique_6(17,1):  0.11444 x(0,1) + 0.03567 x(1,1) + 0.07403 x(2,1) >= 1
cut_clique_6(18,1):  0.09956 x(0,1) + 0.03639 x(1,1) + 0.07403 x(2,1) >= 1
cut_clique_6(19,1):  0.14449 x(0,1) + 0.04127 x(1,1) + 0.09249 x(2,1) >= 1
cut_clique_6(20,1):  0.14449 x(0,1) + 0.03550 x(1,1) + 0.09249 x(2,1) >= 1
cut_clique_6(21,1):  0.16420 x(0,1) + 0.04206 x(1,1) + 0.09635 x(2,1) >= 1
cut_clique_6(22,1):  0.17053 x(0,1) + 0.04206 x(1,1) + 0.09966 x(2,1) >= 1
cut_clique_6(23,1):  0.16630 x(0,1) + 0.04206 x(1,1) + 0.09966 x(2,1) >= 1
cut_clique_6(24,1):  0.16420 x(0,1) + 0.04206 x(1,1) + 0.10036 x(2,1) >= 1
cut_clique_6(25,1):  0.14982 x(0,1) + 0.04206 x(1,1) + 0.09966 x(2,1) >= 1
cut_clique_6(26,1):  0.16420 x(0,1) + 0.03659 x(1,1) + 0.09249 x(2,1) >= 1
cut_clique_6(27,1):  0.07500 x(0,1) + 0.03639 x(1,1) + 0.07329 x(2,1) >= 1
cut_clique_6(28,1):  0.09956 x(0,1) + 0.03603 x(1,1) + 0.07403 x(2,1) >= 1
cut_clique_6(29,1):  0.16883 x(0,1) + 0.04206 x(1,1) + 0.09966 x(2,1) >= 1
cut_clique_6(30,1):  0.09956 x(0,1) + 0.03639 x(1,1) + 0.07329 x(2,1) >= 1
cut_clique_6(31,1):  0.12715 x(0,1) + 0.03920 x(1,1) + 0.09249 x(2,1) >= 1
cut_clique_6(32,1):  0.18293 x(0,1) + 0.04206 x(1,1) + 0.09966 x(2,1) >= 1
cut_clique_6(33,1):  0.15348 x(0,1) + 0.04206 x(1,1) + 0.09966 x(2,1) >= 1
cut_clique_6(34,1):  0.14449 x(0,1) + 0.03786 x(1,1) + 0.09249 x(2,1) >= 1
cut_clique_6(35,1):  0.12715 x(0,1) + 0.04127 x(1,1) + 0.09249 x(2,1) >= 1
cut_clique_6(36,1):  0.18659 x(0,1) + 0.04206 x(1,1) + 0.09966 x(2,1) >= 1
cut_clique_6(37,1):  0.15611 x(0,1) + 0.05531 x(1,1) + 0.09966 x(2,1) >= 1
cut_clique_6(38,1):  0.16420 x(0,1) + 0.04206 x(1,1) + 0.09249 x(2,1) >= 1
cut_clique_6(39,1):  0.12715 x(0,1) + 0.03567 x(1,1) + 0.09249 x(2,1) >= 1
cut_clique_6(40,1):  0.14449 x(0,1) + 0.03473 x(1,1) + 0.09249 x(2,1) >= 1
cut_clique_6(41,1):  0.16885 x(0,1) + 0.04948 x(1,1) + 0.09966 x(2,1) >= 1
cut_clique_6(42,1):  0.17221 x(0,1) + 0.04206 x(1,1) + 0.09966 x(2,1) >= 1
cut_clique_6(43,1):  0.08152 x(0,1) + 0.03639 x(1,1) + 0.07329 x(2,1) >= 1
cut_clique_6(44,1):  0.12715 x(0,1) + 0.03567 x(1,1) + 0.07403 x(2,1) >= 1
cut_clique_6(45,1):  0.12715 x(0,1) + 0.03567 x(1,1) + 0.08509 x(2,1) >= 1
cut_clique_6(46,1):  0.07275 x(0,1) + 0.03639 x(1,1) + 0.07036 x(2,1) >= 1
cut_clique_6(47,1):  0.14449 x(0,1) + 0.03659 x(1,1) + 0.09249 x(2,1) >= 1
cut_clique_6(48,1):  0.11444 x(0,1) + 0.03603 x(1,1) + 0.07403 x(2,1) >= 1
cut_clique_6(49,1):  0.14449 x(0,1) + 0.03372 x(1,1) + 0.09249 x(2,1) >= 1
cut_clique_6(0,2):  0.05289 x(0,2) + 0.04524 x(2,2) >= 1
cut_clique_6(1,2):  0.05395 x(0,2) + 0.04524 x(2,2) >= 1
cut_clique_6(2,2):  0.05395 x(0,2) + 0.04522 x(2,2) >= 1
cut_clique_6(3,2):  0.05334 x(0,2) + 0.04522 x(2,2) >= 1
cut_clique_6(4,2):  0.05281 x(0,2) + 0.04522 x(2,2) >= 1
cut_clique_6(5,2):  0.05334 x(0,2) + 0.04522 x(2,2) >= 1
cut_clique_6(6,2):  0.05277 x(0,2) + 0.04594 x(2,2) >= 1
cut_clique_6(7,2):  0.05277 x(0,2) + 0.04548 x(2,2) >= 1
Bounds
 0 <= C <= 44
 14 <= x(0,0) <= 43
 0 <= y(0,1,0) <= 1
 0 <= y(1,0,0) <= 1
 0 <= v(0,1,0)p <= 36
 0 <= v(0,1,0)n <= 23
 0 <= v(1,0,0)p <= 19
 0 <= v(1,0,0)n <= 40
 0 <= u(0,1,0)p <= 440
 0 <= u(0,1,0)n <= 440
 0 <= u(1,0,0)p <= 440
 0 <= u(1,0,0)n <= 440
 0 <= y(0,2,0) <= 1
 0 <= y(2,0,0) <= 1
 0 <= v(0,2,0)p <= 28
 0 <= v(0,2,0)n <= 30
 0 <= v(2,0,0)p <= 27
 0 <= v(2,0,0)n <= 31
 0 <= u(0,2,0)p <= 440
 0 <= u(0,2,0)n <= 440
 0 <= u(2,0,0)p <= 440
 0 <= u(2,0,0)n <= 440
 4 <= x(1,0) <= 34
 0 <= y(1,2,0) <= 1
 0 <= y(2,1,0) <= 1
 0 <= v(1,2,0)p <= 19
 0 <= v(1,2,0)n <= 40
 0 <= v(2,1,0)p <= 35
 0 <= v(2,1,0)n <= 24
 0 <= u(1,2,0)p <= 440
 0 <= u(1,2,0)n <= 440
 0 <= u(2,1,0)p <= 440
 0 <= u(2,1,0)n <= 440
 13 <= x(2,0) <= 42
 0 <= x(0,1) <= 29
 0 <= y(0,1,1) <= 1
 0 <= y(1,0,1) <= 1
 0 <= v(0,1,1)p <= 25
 0 <= v(0,1,1)n <= 34
 0 <= v(1,0,1)p <= 23
 0 <= v(1,0,1)n <= 36
 0 <= u(0,1,1)p <= 440
 0 <= u(0,1,1)n <= 440
 0 <= u(1,0,1)p <= 440
 0 <= u(1,0,1)n <= 440
 0 <= y(0,2,1) <= 1
 0 <= y(2,0,1) <= 1
 0 <= v(0,2,1)p <= 22
 0 <= v(0,2,1)n <= 36
 0 <= v(2,0,1)p <= 22
 0 <= v(2,0,1)n <= 36
 0 <= u(0,2,1)p <= 440
 0 <= u(0,2,1)n <= 440
 0 <= u(2,0,1)p <= 440
 0 <= u(2,0,1)n <= 440
 0 <= x(1,1) <= 30
 0 <= y(1,2,1) <= 1
 0 <= y(2,1,1) <= 1
 0 <= v(1,2,1)p <= 23
 0 <= v(1,2,1)n <= 36
 0 <= v(2,1,1)p <= 25
 0 <= v(2,1,1)n <= 34
 0 <= u(1,2,1)p <= 440
 0 <= u(1,2,1)n <= 440
 0 <= u(2,1,1)p <= 440
 0 <= u(2,1,1)n <= 440
 0 <= x(2,1) <= 29
 7 <= x(0,2) <= 36
 0 <= y(0,1,2) <= 1
 0 <= y(1,0,2) <= 1
 0 <= v(0,1,2)p <= 22
 0 <= v(0,1,2)n <= 37
 0 <= v(1,0,2)p <= 23
 0 <= v(1,0,2)n <= 36
 0 <= u(0,1,2)p <= 440
 0 <= u(0,1,2)n <= 440
 0 <= u(1,0,2)p <= 440
 0 <= u(1,0,2)n <= 440
 0 <= y(0,2,2) <= 1
 0 <= y(2,0,2) <= 1
 0 <= v(0,2,2)p <= 23
 0 <= v(0,2,2)n <= 35
 0 <= v(2,0,2)p <= 22
 0 <= v(2,0,2)n <= 36
 0 <= u(0,2,2)p <= 440
 0 <= u(0,2,2)n <= 440
 0 <= u(2,0,2)p <= 440
 0 <= u(2,0,2)n <= 440
 7 <= x(1,2) <= 37
 0 <= y(1,2,2) <= 1
 0 <= y(2,1,2) <= 1
 0 <= v(1,2,2)p <= 24
 0 <= v(1,2,2)n <= 35
 0 <= v(2,1,2)p <= 22
 0 <= v(2,1,2)n <= 37
 0 <= u(1,2,2)p <= 440
 0 <= u(1,2,2)n <= 440
 0 <= u(2,1,2)p <= 440
 0 <= u(2,1,2)n <= 440
 7 <= x(2,2) <= 36
End
